10
99
0 1 37 18
0 2 83 7
0 3 34 20
0 4 97 3
0 5 54 10
0 6 64 19
0 7 44 14
0 8 74 7
0 9 3 16
1 2 84 7
1 3 95 4
1 4 48 16
1 5 9 14
1 6 23 11
1 7 12 3
1 8 46 14
1 9 77 12
2 3 48 1
2 4 14 3
2 5 27 4
2 6 69 9
2 7 47 12
2 8 4 9
2 9 70 5
3 4 12 6
3 5 94 20
3 6 26 13
3 7 98 8
3 8 29 14
3 9 77 16
4 5 82 20
4 6 91 3
4 7 56 12
4 8 69 11
4 9 33 11
5 6 10 3
5 7 62 1
5 8 6 1
5 9 48 7
6 7 70 14
6 8 17 20
6 9 10 6
7 8 7 10
7 9 22 14
8 9 79 13
